!File created by the GAMESS Input Deck Generator Plugin for Avogadro
 $BASIS GBASIS=STO NGAUSS=3 $END
 $CONTRL SCFTYP=RHF RUNTYP=IRC $END
 $STATPT  HESS=READ ihrep=5 $END
 $irc npoint=100 saddle=.t. tsengy=.t. forwrd=.t. opttol=0.0005 stride=0.1 $end


 $DATA 
Title
C1
C     6.0     3.51238608    -0.84521562    -2.82799697
C     6.0     2.72567296    -1.12904155    -1.69776297
C     6.0     2.83395386    -0.29861340    -0.56987470
C     6.0     4.67647552    -0.36183494     0.00835283
C     6.0     5.34772253    -1.20183754    -0.89657611
C     6.0     5.35181618    -0.78260130    -2.24056029
C     6.0     5.65190744     0.68683612    -2.43724728
C     6.0     5.51064301     1.56224442    -1.46393967
C     6.0     5.01944923     1.13535070    -0.09899232
O     8.0     4.89970112     1.90796494     0.84135729
H     1.0     3.50788736    -1.57859683    -3.62818170
H     1.0     3.48171473     0.16982803    -3.20647597
H     1.0     2.47640371    -2.16885972    -1.52000630
H     1.0     2.78020215     0.76989383    -0.74459291
H     1.0     2.29016995    -0.59294194     0.32172865
H     1.0     4.59973764    -0.69873536     1.03852987
H     1.0     5.42668486    -2.25920606    -0.67545170
H     1.0     5.84061146    -1.42924583    -2.96358728
H     1.0     5.99208593     0.98978430    -3.42157650
H     1.0     5.75267506     2.60935402    -1.58956289
 $END

 $HESS
ENERGY IS     -416.0940647145 E(NUC) IS      511.4290745867
 1  1 1.08237386E-01 2.12017018E-02-1.52551280E-01-1.08018039E-01-9.25104802E-02
 1  2 1.68985321E-02 1.22961122E-01 6.11351469E-02 1.14075489E-01-1.50757984E-01
 1  3 5.63320052E-02 2.45660939E-02 1.20868017E-02-2.20195400E-02-1.89261032E-01
 1  4 1.49140468E-01-7.63626075E-03 1.68233249E-01-3.48014157E-02-2.86046515E-02
 1  5-1.30499366E-02-6.66191499E-03 8.02725702E-03 7.22855708E-03 1.16262820E-02
 1  6-2.07595257E-03 3.84789388E-03-2.26473290E-03 3.51344561E-03 2.59410666E-04
 1  7-4.57916299E-02-2.93436032E-03 1.17032854E-02-2.12719829E-02 9.05354874E-03
 1  8 1.65846902E-02 6.52338571E-04 3.58523172E-03 5.57494857E-03-2.14881428E-02
 1  9-1.50563028E-03-4.80183248E-03-9.38304318E-04-7.57480789E-04-2.18081269E-03
 1 10 7.47954927E-03 1.58438479E-03 1.04182536E-03 3.31870423E-04-1.37073445E-03
 1 11 1.25468920E-03-2.57064476E-02-4.85528592E-03-1.07302621E-02 1.62601966E-03
 1 12 3.41776962E-04 3.51950924E-04 3.55586137E-03-5.05249824E-04 9.53385288E-04
 2  1 2.12017018E-02 8.90695946E-01 1.74031091E-02-4.20938665E-02-1.79472039E-01
 2  2 3.06489756E-02 3.66896122E-02 2.37129769E-02-8.01917737E-03-2.32613371E-02
 2  3 8.32775442E-03 9.75384251E-04 7.63852774E-03-1.65362796E-03-1.87614440E-02
 2  4 2.58359838E-02-4.59571053E-02 1.79339450E-02-1.91414089E-02-4.91229951E-03
 2  5-6.43223525E-03-8.96104155E-04-3.02147618E-04-2.41039202E-04 8.98701855E-04
 2  6-1.63641148E-03 1.98522029E-03 1.99596028E-04 5.19880543E-04-5.77002364E-04
 2  7-7.22952063E-03-2.65506585E-01-1.94396674E-01 2.22510813E-02-4.25581794E-01
 2  8 1.26636158E-01-2.49756262E-02 1.33472765E-03 3.56325156E-02-9.80554179E-04
 2  9 1.93720636E-03 1.06397606E-03-5.33137199E-03-2.30976787E-03-5.85730192E-03
 2 10 5.94351181E-04 1.55940967E-04-5.53500189E-05-7.36668054E-04-4.16858938E-04
 2 11-1.84042883E-04 7.50835108E-03 9.61657774E-04 1.77365620E-03 6.77232063E-04
 2 12-2.64110078E-04 3.91015616E-04 1.15090355E-03 3.66588934E-04 8.04788865E-05
 3  1-1.52551280E-01 1.74031091E-02 8.87784269E-01 1.72541910E-01 8.62945221E-02
 3  2-3.47959267E-01-1.07241175E-02-9.02268721E-03-6.30597541E-02 3.65741741E-02
 3  3-1.12970393E-02-8.20344636E-03-1.13425952E-02 9.18771610E-04 1.57075691E-02
 3  4-3.13369806E-02-6.26748551E-04-6.33681131E-02-1.67486231E-03-4.32364283E-03
 3  5-4.06265186E-04-3.85566719E-04 1.88394447E-04 9.63669153E-04-3.69962601E-03
 3  6 1.24552681E-03-3.66422032E-03 3.46921687E-04-2.47667144E-05 1.33176388E-03
 3  7-6.36547805E-03-1.92579406E-01-2.90166755E-01-8.81241087E-03 1.19608011E-01
 3  8-1.29213839E-01 6.23354650E-03-7.11938184E-03-2.87484360E-03 1.46055181E-03
 3  9-2.27556933E-04 1.22756092E-03 2.65832357E-03-5.02228109E-03-2.94480106E-03
 3 10-2.74506240E-03-5.50250125E-05 1.21888474E-03-1.03782574E-03 2.20941645E-03
 3 11-2.46911545E-04 1.10422981E-02 1.55328838E-03 3.43289191E-03 7.84631268E-05
 3 12 8.83405218E-04 1.22558550E-04-2.60426944E-04-5.14324463E-06 3.19262317E-04
 4  1-1.08018039E-01-4.20938665E-02 1.72541910E-01 3.73266692E-01 1.75393785E-01
 4  2-1.65284482E-01-9.74947954E-02-3.87825638E-02-1.21344862E-02 1.22996022E-02
 4  3-1.05043922E-02-7.90867880E-03-4.81725225E-02-5.23381430E-03 3.12168818E-02
 4  4-7.80888753E-02 2.77526773E-03-5.10228953E-02 5.71023188E-03 4.39224681E-03
 4  5 1.90807249E-03 1.46620730E-03-1.82239999E-03-9.71904902E-04-1.42164271E-03
 4  6 9.07401609E-04-1.46252468E-03 3.20460033E-05-1.67758608E-03-2.25550716E-04
 4  7 2.25860734E-03-1.19879867E-03-8.99831525E-03-8.96399367E-03 1.74086889E-03
 4  8-7.38044857E-03-7.13808454E-02-9.81036605E-02 2.66639301E-02 5.39666084E-03
 4  9 1.58471722E-03 1.44573987E-04 8.58199680E-03 1.58867278E-02 2.03369004E-02
 4 10-1.24689241E-03-6.63516281E-04-7.59984482E-04 3.60519070E-03-2.96615517E-03
 4 11 1.56045370E-03 3.50385035E-03 4.24399215E-04 1.87031392E-03-3.53073670E-04
 4 12-2.08577377E-04 4.84774483E-05-9.79260063E-04 1.49332575E-04-1.42108496E-04
 5  1-9.25104802E-02-1.79472039E-01 8.62945221E-02 1.75393785E-01 8.71542040E-01
 5  2 3.21859416E-02 1.63485963E-02-2.81432405E-01-1.59912385E-01-5.25899568E-02
 5  3 1.50448945E-02 3.90646357E-03 2.32422575E-02 2.12013304E-04-2.91363531E-02
 5  4 2.56196333E-02-1.53553010E-03 1.79538688E-02-2.25775410E-03-2.99493750E-03
 5  5-4.25385093E-05-1.32903007E-03 1.32155983E-03 4.34902303E-04 4.23250409E-03
 5  6-3.76400115E-04 1.78348168E-03-8.97428385E-04 8.55406640E-04-3.25332605E-04
 5  7 2.20562956E-02 1.17670821E-02-2.29147845E-02-2.60566984E-02 1.50446896E-03
 5  8 3.38273289E-02-7.65520826E-02-4.33954718E-01 6.28589001E-02-1.64852024E-02
 5  9-1.52211931E-02-4.06447960E-02-1.51118361E-03 1.28354678E-02 1.32903671E-02
 5 10 3.80371966E-03 5.03106832E-04 1.28980357E-04-5.31527885E-04-6.16607434E-04
 5 11 8.71906818E-06-6.15244735E-04 1.16250321E-04 3.01640036E-04 1.80879416E-04
 5 12-2.03874774E-05-9.30204040E-05 4.58465114E-04-7.84710194E-05 9.37295746E-05
 6  1 1.68985321E-02 3.06489756E-02-3.47959267E-01-1.65284482E-01 3.21859416E-02
 6  2 7.27085154E-01 1.38696207E-01-1.16946374E-01-2.55581301E-01-1.79564466E-01
 6  3 4.26936497E-02 3.53488598E-03 2.42504889E-02-3.26845890E-02-1.34879179E-01
 6  4 1.30324585E-01-1.01068076E-02 1.11538253E-01-1.16492274E-02-6.85741087E-03
 6  5-2.83349134E-03-3.81679504E-03 2.60203819E-03 1.98575995E-03 1.15655272E-02
 6  6 3.93901959E-03 6.26113222E-03-1.36548010E-03 1.02841792E-03-1.54843208E-03
 6  7 2.77691078E-02 1.14977673E-02-1.23607850E-02 3.20272644E-02 1.27180646E-03
 6  8 5.11437522E-03 2.29018500E-02 5.60638520E-02-8.71996921E-02-2.42132677E-02
 6  9 7.71397650E-03 7.61433689E-03-2.05933287E-02-2.03886313E-02-2.00872310E-02
 6 10 7.68100120E-03 9.66836231E-04 1.34099331E-03 1.66524166E-03-5.99387694E-04
 6 11 9.31940114E-04-9.75737007E-03-2.07093708E-03-3.33618612E-03 7.16450668E-04
 6 12-7.30395099E-04 1.47509164E-04 1.74560731E-03-2.29482063E-04 2.30959820E-04
 7  1 1.22961122E-01 3.66896122E-02-1.07241175E-02-9.74947954E-02 1.63485963E-02
 7  2 1.38696207E-01 2.20068473E-01 7.57104718E-03-3.15571277E-01 1.41710043E-01
 7  3-4.69818826E-02-1.66270037E-02-7.68571488E-02 4.03439733E-02 1.26082227E-01
 7  4-8.10881356E-02 1.67783661E-02-8.73436547E-02 8.28542938E-03 1.47600715E-03
 7  5 6.58936310E-04 3.99909043E-03-8.82072737E-04 4.79431695E-04-3.12194053E-02
 7  6-2.16062170E-02-1.57703022E-02 1.36442747E-03 4.17469546E-03 6.23415994E-03
 7  7-1.74918063E-03-1.75651531E-03 5.23294134E-03-1.71886122E-02-2.56059081E-03
 7  8-6.11998212E-03 2.67314821E-03-3.38754417E-03-6.02999589E-03-3.66082795E-02
 7  9 1.15598853E-02 1.36475439E-02-1.49753746E-01-5.84165411E-02 1.68333461E-01
 7 10-1.23973970E-02-1.17593145E-03-5.40364984E-04-1.07266083E-03-6.42116891E-04
 7 11-1.10013800E-03 6.49346469E-03 1.64246522E-03 1.43165054E-03-1.03816274E-03
 7 12 4.85019201E-04-2.05959140E-04-1.08550619E-03 3.41413888E-04-7.63959625E-04
 8  1 6.11351469E-02 2.37129769E-02-9.02268721E-03-3.87825638E-02-2.81432405E-01
 8  2-1.16946374E-01 7.57104718E-03 8.87007118E-01 8.33585029E-03 6.08306583E-02
 8  3-5.71970488E-02 3.15660720E-03-1.14022089E-02 1.20780507E-02 3.91787909E-02
 8  4-3.93979030E-02 4.22278189E-03-3.80548673E-02 5.04787949E-03 3.60817466E-03
 8  5 2.59619178E-03 4.02487086E-03-7.87200017E-04-6.53423341E-04-1.96338602E-02
 8  6-3.47372676E-03-1.11553815E-02 8.28823884E-04-2.09621498E-03 1.98092325E-03
 8  7-6.48429778E-03 3.91554337E-04 2.08959209E-04-3.27851559E-03 9.32484616E-04
 8  8-2.56625993E-03-3.63477649E-03-1.34154962E-02-4.05134222E-02 3.46597583E-02
 8  9-4.57243584E-01 6.99109932E-02-5.40974323E-02-1.15589699E-01 9.05724179E-02
 8 10 2.50120829E-03 3.13221675E-05 1.19307230E-03-6.25317050E-04-1.56652409E-03
 8 11 2.31473811E-04 2.50015778E-03 5.49072813E-04 1.75031914E-03-4.24009497E-04
 8 12 1.31374676E-04-3.22376046E-05-1.33762880E-03 1.36937550E-04-1.70996900E-04
 9  1 1.14075489E-01-8.01917737E-03-6.30597541E-02-1.21344862E-02-1.59912385E-01
 9  2-2.55581301E-01-3.15571277E-01 8.33585029E-03 7.84424060E-01 1.47772556E-01
 9  3-3.27118763E-02-5.27081212E-02-4.60383026E-02 2.96563811E-02 9.49030652E-02
 9  4-7.16104180E-02 9.97214856E-03-8.47391941E-02 8.49731896E-03-1.50874131E-04
 9  5 2.85233543E-03 2.12709298E-03-1.61139385E-03-4.79002412E-04-1.32650002E-02
 9  6-6.56326658E-03-6.75020231E-03-6.09957100E-05-7.51130879E-04 2.51908170E-03
 9  7 2.65117202E-03 2.03830821E-03-4.34102485E-03-1.34770415E-02-1.70773414E-03
 9  8-3.10965711E-03-8.71691198E-04 1.13700451E-02 7.56473092E-03 2.92988699E-02
 9  9 6.51595424E-02-8.60721186E-02 1.86882402E-01 8.73621180E-02-3.34892688E-01
 9 10-2.31383223E-02-2.15984914E-03-4.31133245E-03 5.83154661E-04-2.47232202E-03
 9 11 3.32417110E-04 6.38015860E-03 1.91462433E-03 3.62717775E-03-8.11926111E-04
 9 12 2.17248555E-04-1.16937288E-04-1.28664380E-03 3.45200260E-05-6.19096807E-05
10  1-1.50757984E-01-2.32613371E-02 3.65741741E-02 1.22996022E-02-5.25899568E-02
10  2-1.79564466E-01 1.41710043E-01 6.08306583E-02 1.47772556E-01 1.19578450E-01
10  3-1.81746978E-03-1.62975651E-01-8.33922240E-02 7.44659945E-02-1.27508664E-02
10  4 9.29913163E-02-2.52238797E-02 1.20839524E-01-1.55464579E-02 9.36368199E-03
10  5-3.84876383E-03 9.78355083E-03-1.10940167E-02-8.56524730E-04-7.26344304E-02
10  6-2.75439976E-02 3.31644326E-02 1.92482801E-02 7.17613202E-04-7.09049916E-03
10  7 4.85434057E-03-1.36142117E-03 1.94436750E-03 1.48657021E-02 1.90743743E-03
10  8 5.80817207E-03 6.42743138E-04 1.18343340E-03 9.09410255E-04-3.24423964E-02
10  9-2.48257099E-04-7.64384830E-03-2.18142210E-02 5.04249736E-03-1.11307891E-02
10 10-4.54976400E-02-6.60823433E-03 3.81142263E-02 5.69840696E-03-2.78181739E-03
10 11 1.36610671E-03-1.97466896E-03-4.41653853E-04-2.37303646E-03 6.14834417E-05
10 12-1.50295884E-04-4.59228462E-04 2.32546554E-03-3.90349616E-04 2.19993799E-03
11  1 5.63320052E-02 8.32775442E-03-1.12970393E-02-1.05043922E-02 1.50448945E-02
11  2 4.26936497E-02-4.69818826E-02-5.71970488E-02-3.27118763E-02-1.81746978E-03
11  3 7.14200157E-01 1.64316695E-02 8.42231289E-02-2.74290728E-01-7.12054942E-02
11  4-4.81899818E-02 2.84903077E-02-4.23140266E-02 3.42001877E-03-4.02308937E-03
11  5-2.37193441E-03-6.98396680E-03-1.04883094E-02 3.09482874E-03-5.90429790E-02
11  6-2.39801792E-01 3.02546808E-02-5.05264586E-03-5.10816819E-02-2.45737134E-02
11  7-2.49029516E-03 7.35262630E-04 5.02195661E-05-6.84405976E-03-1.11883859E-03
11  8-1.92836893E-03-3.28255238E-04-1.18368501E-03 4.63058271E-04 2.24927277E-02
11  9-7.07292381E-05 4.91779201E-03-1.83663833E-03 2.61947366E-04-2.17418981E-04
11 10-9.01649116E-03-1.18319958E-01 1.13949909E-01 2.39433043E-02-1.04392296E-02
11 11-3.09498621E-02 6.34323453E-03 9.04269902E-05 5.15245329E-03 7.80325104E-04
11 12 4.14669533E-04-3.82349367E-04 1.55486132E-03 4.50581081E-04 9.44226600E-04
12  1 2.45660939E-02 9.75384251E-04-8.20344636E-03-7.90867880E-03 3.90646357E-03
12  2 3.53488598E-03-1.66270037E-02 3.15660720E-03-5.27081212E-02-1.62975651E-01
12  3 1.64316695E-02 9.36892861E-01 1.20893731E-01-1.45032593E-01-2.74395260E-01
12  4 4.27625192E-03-2.52555156E-02-5.53245959E-02-1.38397018E-03 1.85191291E-03
12  5 2.87755598E-03 1.31060747E-02 3.51522703E-02-3.00994720E-04 1.10887682E-02
12  6 3.48177917E-02-1.30999953E-01-6.44496604E-03-5.39011711E-02 3.75876821E-03
12  7-1.92200430E-03 8.49817912E-04 9.67006696E-04-3.95437978E-03-1.28118828E-03
12  8-5.09028392E-04-1.35664525E-03-1.39607568E-03 4.32831894E-04-5.52359428E-03
12  9-1.03309609E-04-9.74130299E-04 1.20262942E-02-2.14037702E-03 4.22406777E-03
12 10 1.92443615E-02 1.17360888E-01-4.27014371E-01-2.12366396E-03 1.10245095E-02
12 11 9.45613824E-03 2.22243657E-03 4.17558304E-03-6.10006122E-03-1.01749766E-03
12 12-5.82292659E-04 3.61518764E-04 3.81480297E-03-9.62532035E-06-5.97591962E-03
13  1 1.20868017E-02 7.63852774E-03-1.13425952E-02-4.81725225E-02 2.32422575E-02
13  2 2.42504889E-02-7.68571488E-02-1.14022089E-02-4.60383026E-02-8.33922240E-02
13  3 8.42231289E-02 1.20893731E-01 3.18776089E-01-1.34665823E-01-1.12746908E-01
13  4-8.98865592E-02 1.85900964E-02 6.26396178E-03 4.79746005E-03-1.52438090E-02
13  5 7.17801683E-03-5.30528469E-04-8.13993913E-05 4.14980120E-03-1.63328225E-03
13  6 8.77027392E-04-1.14157633E-02-8.42113953E-05-5.61732286E-03 1.06001072E-04
13  7-4.99941855E-04 3.08365682E-04-9.50376109E-04-3.16782852E-03-5.09010576E-05
13  8-2.04544435E-03 4.32433642E-03 2.72989787E-03 5.22280578E-04 6.09568342E-03
13  9 4.83987288E-04 1.87168733E-03 2.84185392E-03-3.09283444E-04 1.72560527E-03
13 10-1.35330507E-03-3.81966226E-04-6.44856057E-03-5.03477528E-02 3.88781201E-02
13 11 1.31403281E-03 6.34156962E-03-7.92354454E-03 2.21821558E-02 8.25140237E-04
13 12-1.08255017E-03 8.45083578E-05-1.62990773E-04-2.12912867E-04 4.45757778E-04
14  1-2.20195400E-02-1.65362796E-03 9.18771610E-04-5.23381430E-03 2.12013304E-04
14  2-3.26845890E-02 4.03439733E-02 1.20780507E-02 2.96563811E-02 7.44659945E-02
14  3-2.74290728E-01-1.45032593E-01-1.34665823E-01 9.30230651E-01-7.00296650E-02
14  4 2.03699950E-02-1.87412359E-01 1.35311059E-01-6.67539601E-04-2.00699948E-02
14  5 4.42889549E-02-8.11428462E-04 4.17797662E-03 2.21524120E-03 3.01549079E-02
14  6-3.00371473E-02-2.43462471E-02-4.34966326E-03-4.09686730E-03 1.79673799E-03
14  7-2.10539094E-04 3.43540587E-04 3.80929294E-04 8.38001143E-04-4.32882031E-04
14  8 7.27192072E-04 1.01338590E-03-5.88540047E-04 5.60442009E-04-5.30459654E-03
14  9-1.88680326E-04-1.20452974E-03-2.75332713E-03 7.96796482E-04-1.76087460E-03
14 10-5.97603996E-03 1.41933159E-02 1.30559604E-02 1.94188309E-02-4.51080213E-01
14 11 7.49866304E-02-4.18026405E-03 1.31388045E-02-2.79331340E-02-9.38722742E-04
14 12-6.56440673E-03-3.79264954E-04 5.05343027E-04 1.24435133E-03-5.27738521E-04
15  1-1.89261032E-01-1.87614440E-02 1.57075691E-02 3.12168818E-02-2.91363531E-02
15  2-1.34879179E-01 1.26082227E-01 3.91787909E-02 9.49030652E-02-1.27508664E-02
15  3-7.12054942E-02-2.74395260E-01-1.12746908E-01-7.00296650E-02 7.53304082E-01
15  4 1.44708357E-01 7.75108041E-02-3.41442040E-01-1.99609370E-02 2.20163847E-02
15  5-5.99455691E-03 8.20677347E-04-3.17198605E-03-4.10010376E-03 9.67884767E-03
15  6-2.11766308E-02 1.79180949E-02-2.39966044E-04 1.04462723E-02 1.94328425E-03
15  7 6.71240605E-03-1.56692647E-03 1.85047831E-03 1.73580699E-02 1.27204436E-03
15  8 6.54853110E-03 1.57917529E-03 8.16090605E-04 5.96982622E-04-1.50486279E-02
15  9 4.71205749E-04-2.72503693E-03-6.74243033E-03 1.83099890E-03-2.59146248E-03
15 10 3.23343625E-02-2.70956052E-02-1.20621381E-02 5.70331846E-03 8.14074204E-02
15 11-9.40169245E-02-2.04930915E-02 1.03111061E-02-1.97650464E-02-6.64672696E-05
15 12-3.13501032E-03 2.83278938E-04 1.11343570E-03 1.61047477E-05-1.08360493E-03
16  1 1.49140468E-01 2.58359838E-02-3.13369806E-02-7.80888753E-02 2.56196333E-02
16  2 1.30324585E-01-8.10881356E-02-3.93979030E-02-7.16104180E-02 9.29913163E-02
16  3-4.81899818E-02 4.27625192E-03-8.98865592E-02 2.03699950E-02 1.44708357E-01
16  4 2.23542939E-01-7.61055467E-02-3.08464905E-01-7.74486816E-02-9.78293349E-03
16  5 3.40672001E-02 1.49884659E-02-2.54000699E-03-1.49036719E-02-2.20384384E-02
16  6 9.07515847E-03-4.72492258E-03 3.59515658E-03-4.96704911E-03-1.38942472E-03
16  7-1.09623110E-02 3.12883691E-03-1.30638815E-03-2.91830041E-02-1.81751472E-03
16  8-1.11294425E-02-1.29808258E-03 5.68596700E-05-1.45337785E-03 1.05267931E-02
16  9-2.28727348E-04 1.11161892E-03 4.03134460E-03-1.55476310E-03 5.69062040E-04
16 10-3.51814203E-04 3.68866247E-03 3.88368859E-03 4.86212206E-03 1.43643730E-03
16 11-2.67744546E-04-1.26180912E-01 1.06947895E-01 1.23143162E-01 2.35031722E-03
16 12-1.05218523E-02-9.97086045E-04 1.04996161E-02-1.05187725E-03 5.50083407E-03
17  1-7.63626075E-03-4.59571053E-02-6.26748551E-04 2.77526773E-03-1.53553010E-03
17  2-1.01068076E-02 1.67783661E-02 4.22278189E-03 9.97214856E-03-2.52238797E-02
17  3 2.84903077E-02-2.52555156E-02 1.85900964E-02-1.87412359E-01 7.75108041E-02
17  4-7.61055467E-02 7.61692975E-01 4.24114287E-02-5.23115841E-02-2.98109206E-01
17  5 2.99546196E-02-5.86553528E-04-3.98210949E-02-9.66189499E-03 1.44869260E-03
17  6 4.14153379E-03 3.70580782E-03-1.77620988E-04-1.74293273E-03 4.28433472E-04
17  7-1.06403155E-02 1.54834807E-03-3.19943407E-03 1.68491675E-02 1.48207681E-03
17  8 6.18572655E-03 1.60278334E-04-6.60502323E-04-2.95756913E-06-1.49464620E-03
17  9-3.82179976E-05-7.13155068E-04-8.99204852E-04-1.80004146E-04-4.31625933E-04
17 10 6.60128825E-03-4.06916355E-03-2.06317796E-03 1.70789149E-03-4.32315509E-04
17 11 4.13061326E-02 1.11564460E-01-2.16399559E-01-1.51049475E-01 1.47453111E-03
17 12-5.20482759E-03-6.39545446E-03-2.87411490E-03-1.53957427E-05-1.96849364E-03
18  1 1.68233249E-01 1.79339450E-02-6.33681131E-02-5.10228953E-02 1.79538688E-02
18  2 1.11538253E-01-8.73436547E-02-3.80548673E-02-8.47391941E-02 1.20839524E-01
18  3-4.23140266E-02-5.53245959E-02 6.26396178E-03 1.35311059E-01-3.41442040E-01
18  4-3.08464905E-01 4.24114287E-02 8.05369978E-01 4.76725092E-02 2.00593506E-02
18  5-1.25691508E-01-9.15074414E-03-2.96818678E-02 1.23125776E-02-1.15281045E-02
18  6 6.03622797E-03-4.35946703E-03 1.76543404E-03-2.56074980E-03 5.86254856E-04
18  7-1.80308251E-02 3.76281526E-03-4.89472782E-03-2.54286538E-02-9.10551680E-04
18  8-9.00938736E-03 5.78040540E-04 2.55686794E-03-7.60504402E-04 1.31136019E-02
18  9 1.63120450E-03 2.80964377E-03 5.49918626E-03-1.55803481E-03 3.99888626E-03
18 10-2.60935005E-03-4.20574712E-03-2.39941797E-03-2.03061210E-03-8.65234558E-03
18 11-1.52715302E-03 1.43642034E-01-1.51624042E-01-2.43032304E-01 6.44178993E-03
18 12 3.48072559E-02 3.96148231E-03 1.56271325E-03-2.90171528E-03-4.02839756E-03
19  1-3.48014157E-02-1.91414089E-02-1.67486231E-03 5.71023188E-03-2.25775410E-03
19  2-1.16492274E-02 8.28542938E-03 5.04787949E-03 8.49731896E-03-1.55464579E-02
19  3 3.42001877E-03-1.38397018E-03 4.79746005E-03-6.67539601E-04-1.99609370E-02
19  4-7.74486816E-02-5.23115841E-02 4.76725092E-02 2.75910585E-01 5.73812315E-02
19  5-2.13399401E-01-9.12309730E-02 3.15494037E-02 7.66441794E-02 8.18210908E-03
19  6 1.28076166E-02 8.61158327E-03-1.23863655E-03-1.98124802E-03 3.82939132E-03
19  7-7.04876343E-04-1.78162353E-04-4.19064604E-04-2.55755006E-03-4.77350855E-03
19  8-5.81919011E-04 6.81335885E-04-3.37030058E-04 2.46769759E-04-1.80456634E-03
19  9-3.34781792E-04 1.07228594E-04-5.48456209E-04 1.80239859E-04-4.79422577E-04
19 10 4.08722665E-04-7.80499686E-05-2.40999392E-04 7.40611996E-03 1.63133667E-03
19 11-8.53384113E-05 3.98300934E-03 1.86380411E-02-5.85061163E-03-9.80436889E-02
19 12-4.06492647E-02 1.17251072E-01 8.55980797E-03-7.94590736E-03-7.13409822E-03
20  1-2.86046515E-02-4.91229951E-03-4.32364283E-03 4.39224681E-03-2.99493750E-03
20  2-6.85741087E-03 1.47600715E-03 3.60817466E-03-1.50874131E-04 9.36368199E-03
20  3-4.02308937E-03 1.85191291E-03-1.52438090E-02-2.00699948E-02 2.20163847E-02
20  4-9.78293349E-03-2.98109206E-01 2.00593506E-02 5.73812315E-02 8.71323715E-01
20  5 1.91865440E-01 1.71200338E-02-4.29886842E-01-2.86423528E-01 8.93922929E-03
20  6 2.69711525E-02-2.28462334E-02-5.12611397E-03 1.46211706E-03 1.50123020E-02
20  7 1.21664484E-03-5.47360647E-04-1.01556807E-04 1.39659686E-03-1.83242733E-04
20  8 9.47896162E-04 4.32791677E-04 2.62627735E-05 4.46726071E-05 2.38528655E-04
20  9 2.96710474E-04 3.98188746E-04 1.01009284E-03-5.05531587E-04 8.36761659E-04
20 10-5.44510955E-04-1.60169332E-03-5.37277642E-04-1.63112089E-03-3.35202899E-04
20 11-1.17250867E-03-1.29265286E-02-1.74443237E-02 7.93859787E-03-3.84559668E-02
20 12-1.07912308E-01 9.56156116E-02 9.34813555E-03-1.51627832E-02-3.41734346E-02
21  1-1.30499366E-02-6.43223525E-03-4.06265186E-04 1.90807249E-03-4.25385093E-05
21  2-2.83349134E-03 6.58936310E-04 2.59619178E-03 2.85233543E-03-3.84876383E-03
21  3-2.37193441E-03 2.87755598E-03 7.17801683E-03 4.42889549E-02-5.99455691E-03
21  4 3.40672001E-02 2.99546196E-02-1.25691508E-01-2.13399401E-01 1.91865440E-01
21  5 1.05320172E+00 6.86515518E-02-3.17852631E-01-4.91441339E-01 9.74613923E-03
21  6-3.28498728E-02-4.42310349E-02 1.59300730E-03 9.13154145E-03 8.04777039E-04
21  7-3.61582346E-04 7.67707039E-05-1.03957892E-04-2.70577853E-03-2.42076983E-03
21  8 1.28197352E-03 3.04994252E-04-4.94733057E-04 2.79672272E-04-8.92929267E-04
21  9-5.30369000E-04-9.55627112E-05-2.41132435E-04 1.18405587E-04-2.50623761E-04
21 10-1.27067522E-03-4.52531129E-04 4.20263779E-04 3.96131297E-04 1.47008424E-03
21 11-6.92342993E-03-8.43355888E-03-2.73077968E-02 8.19522477E-03 1.16928421E-01
21 12 1.01347547E-01-4.00873690E-01 2.77070734E-03 9.90624222E-03 8.93157557E-03
22  1-6.66191499E-03-8.96104155E-04-3.85566719E-04 1.46620730E-03-1.32903007E-03
22  2-3.81679504E-03 3.99909043E-03 4.02487086E-03 2.12709298E-03 9.78355083E-03
22  3-6.98396680E-03 1.31060747E-02-5.30528469E-04-8.11428462E-04 8.20677347E-04
22  4 1.49884659E-02-5.86553528E-04-9.15074414E-03-9.12309730E-02 1.71200338E-02
22  5 6.86515518E-02 2.24580726E-01 1.01768640E-01-1.70854234E-01-1.14708817E-01
22  6-2.82867618E-02 5.32271792E-02 1.83528338E-02 2.11240458E-03 1.68269206E-02
22  7 1.96219376E-04-3.40858517E-04 1.04066151E-04-3.60524530E-05-8.95541644E-04
22  8 3.58441440E-04 7.26709781E-05-8.46512302E-07 6.73601246E-05-7.62887461E-04
22  9-2.97468524E-04 5.78608366E-05 4.84054378E-04-2.99690164E-04 2.44385764E-04
22 10 1.11289948E-03-1.76211093E-03-3.52292201E-04-5.81577754E-04-2.77447926E-04
22 11-5.95493875E-04-3.43872970E-04-1.70461863E-03 1.07350902E-03 1.21878993E-02
22 12 9.94979109E-03 1.01530840E-02-7.23701406E-02-9.05032457E-02 1.83373154E-02
23  1 8.02725702E-03-3.02147618E-04 1.88394447E-04-1.82239999E-03 1.32155983E-03
23  2 2.60203819E-03-8.82072737E-04-7.87200017E-04-1.61139385E-03-1.10940167E-02
23  3-1.04883094E-02 3.51522703E-02-8.13993913E-05 4.17797662E-03-3.17198605E-03
23  4-2.54000699E-03-3.98210949E-02-2.96818678E-02 3.15494037E-02-4.29886842E-01
23  5-3.17852631E-01 1.01768640E-01 1.06340419E+00 2.29555757E-01-3.40109567E-02
23  6-1.64248553E-01 6.51886220E-02 1.20581486E-02 1.99072900E-02-4.34679564E-02
23  7-6.51052541E-04 2.01702980E-04 7.17415485E-05-2.10957258E-04-1.24206628E-04
23  8-2.07456099E-05-8.51685117E-05 1.06098235E-04 3.74453779E-05-5.80666406E-04
23  9-6.95375236E-05-1.88578514E-04 1.48106001E-04 2.78823034E-04-1.06692674E-04
23 10-1.74897773E-03-6.11509907E-03-1.27037787E-03-7.25868876E-04 9.98577646E-04
23 11-3.00164145E-04-8.32274786E-04-4.79713110E-03 2.52509666E-03-4.46486237E-03
23 12 1.33281828E-02 1.42821763E-02-9.38206535E-02-4.47083512E-01 4.80687851E-02
24  1 7.22855708E-03-2.41039202E-04 9.63669153E-04-9.71904902E-04 4.34902303E-04
24  2 1.98575995E-03 4.79431695E-04-6.53423341E-04-4.79002412E-04-8.56524730E-04
24  3 3.09482874E-03-3.00994720E-04 4.14980120E-03 2.21524120E-03-4.10010376E-03
24  4-1.49036719E-02-9.66189499E-03 1.23125776E-02 7.66441794E-02-2.86423528E-01
24  5-4.91441339E-01-1.70854234E-01 2.29555757E-01 8.61343110E-01 5.12703253E-02
24  6 6.43804445E-02-2.19273448E-01 2.41387815E-02-1.64875607E-02-6.75644649E-02
24  7-6.83869329E-04-1.40138680E-04 1.22884013E-04 7.00395891E-04-3.89545241E-04
24  8 1.68134018E-04-2.00445311E-04 8.99995207E-05 1.68211348E-04 9.14544645E-05
24  9 5.11176721E-04-4.57401793E-04-9.70408685E-05 1.55803187E-04-2.16078169E-05
24 10 1.04221181E-03-1.18809665E-03 6.52334420E-04 9.05992272E-04-1.71528843E-04
24 11 5.73133706E-04 2.15074780E-03 3.36077698E-03 2.18754297E-04 3.45369563E-03
24 12-3.25229040E-02-1.29549924E-02 1.63124367E-02 4.40814697E-02-8.19150471E-02
25  1 1.16262820E-02 8.98701855E-04-3.69962601E-03-1.42164271E-03 4.23250409E-03
25  2 1.15655272E-02-3.12194053E-02-1.96338602E-02-1.32650002E-02-7.26344304E-02
25  3-5.90429790E-02 1.10887682E-02-1.63328225E-03 3.01549079E-02 9.67884767E-03
25  4-2.20384384E-02 1.44869260E-03-1.15281045E-02 8.18210908E-03 8.93922929E-03
25  5 9.74613923E-03-1.14708817E-01-3.40109567E-02 5.12703253E-02 2.91037332E-01
25  6 2.73552046E-02-1.56287725E-01-8.03423654E-02 4.46313604E-02 7.51206909E-02
25  7-9.71216699E-04 1.68409413E-04 3.67324030E-05-1.19379462E-03-5.91648167E-04
25  8-3.33075154E-04 3.93115958E-04-3.94137334E-04 5.26329290E-04-3.95488380E-03
25  9-4.34552592E-03-1.99684227E-03-3.39170990E-04 5.30878244E-04-2.31946824E-06
25 10-4.41744749E-04-1.26366170E-03-1.15936999E-03 4.05180999E-03 4.16125982E-03
25 11 6.68057456E-03 1.02657652E-04-3.13661320E-04 2.51981206E-04 1.50134012E-02
25 12-3.71155218E-03 4.74240520E-03 4.93001478E-04 7.86363721E-04 7.56374043E-03
26  1-2.07595257E-03-1.63641148E-03 1.24552681E-03 9.07401609E-04-3.76400115E-04
26  2 3.93901959E-03-2.16062170E-02-3.47372676E-03-6.56326658E-03-2.75439976E-02
26  3-2.39801792E-01 3.48177917E-02 8.77027392E-04-3.00371473E-02-2.11766308E-02
26  4 9.07515847E-03 4.14153379E-03 6.03622797E-03 1.28076166E-02 2.69711525E-02
26  5-3.28498728E-02-2.82867618E-02-1.64248553E-01 6.43804445E-02 2.73552046E-02
26  6 8.75336647E-01 3.44474844E-01 4.76292378E-02-4.52716308E-01-4.24264277E-01
26  7 5.67857950E-04-7.90368789E-04 9.52504788E-05 2.10807279E-03 5.73366404E-04
26  8 6.97545007E-04-3.37601234E-04-1.06684371E-04-6.51084011E-05 2.92801247E-03
26  9 5.32522014E-04 1.28073300E-03 7.17489500E-04-4.96782979E-04 7.52584405E-04
26 10-4.22930429E-03-5.98484076E-03-4.83461746E-03-3.21084825E-03-1.27114843E-04
26 11 3.22652803E-04-6.96793028E-04-1.52333279E-03 1.12210822E-03-4.20240837E-03
26 12-5.85698403E-03-2.48105923E-03-1.27832818E-02-3.79227846E-04 3.30693212E-02
27  1 3.84789388E-03 1.98522029E-03-3.66422032E-03-1.46252468E-03 1.78348168E-03
27  2 6.26113222E-03-1.57703022E-02-1.11553815E-02-6.75020231E-03 3.31644326E-02
27  3 3.02546808E-02-1.30999953E-01-1.14157633E-02-2.43462471E-02 1.79180949E-02
27  4-4.72492258E-03 3.70580782E-03-4.35946703E-03 8.61158327E-03-2.28462334E-02
27  5-4.42310349E-02 5.32271792E-02 6.51886220E-02-2.19273448E-01-1.56287725E-01
27  6 3.44474844E-01 9.97739784E-01 7.55661556E-02-4.21723700E-01-6.16698511E-01
27  7 1.43863054E-05 5.16019375E-04-1.09133966E-04-1.83013871E-03-3.80364751E-05
27  8-8.80734907E-04 2.63820508E-04-9.53331761E-05-3.47950602E-04-1.39301905E-04
27  9-1.74547277E-03 2.23430527E-03-6.03186124E-05-1.05425659E-04 1.85593520E-04
27 10 5.94104290E-03 3.83075315E-02 4.23264153E-03 4.50089338E-03-1.03033429E-03
27 11-3.72169648E-03 1.02720759E-03 2.29821562E-03-4.04626311E-05 5.33393851E-03
27 12-5.13551203E-05 6.96627888E-05 1.91554190E-04-5.37667084E-03 2.43720706E-03
28  1-2.26473290E-03 1.99596028E-04 3.46921687E-04 3.20460033E-05-8.97428385E-04
28  2-1.36548010E-03 1.36442747E-03 8.28823884E-04-6.09957100E-05 1.92482801E-02
28  3-5.05264586E-03-6.44496604E-03-8.42113953E-05-4.34966326E-03-2.39966044E-04
28  4 3.59515658E-03-1.77620988E-04 1.76543404E-03-1.23863655E-03-5.12611397E-03
28  5 1.59300730E-03 1.83528338E-02 1.20581486E-02 2.41387815E-02-8.03423654E-02
28  6 4.76292378E-02 7.55661556E-02 4.44668877E-02-4.66140404E-02-9.15751284E-02
28  7 2.78694855E-04-2.52495225E-05-2.27443855E-05 2.75948800E-05 5.12992461E-05
28  8-3.95598794E-05 3.02570182E-05 5.38630976E-05-1.82139443E-04 8.06324644E-07
28  9-1.44008785E-04 5.49325938E-04 2.60805227E-04-4.11949118E-05 1.91384352E-04
28 10-9.18955514E-04 2.52321435E-04-3.48319258E-04-1.04938192E-04-5.66202665E-04
28 11-1.23551686E-03-3.03965651E-05 2.15363383E-04-1.63934059E-04-2.21266561E-03
28 12 1.21015279E-03-4.52803328E-04-4.60340572E-04 4.95886219E-04-2.01965464E-03
29  1 3.51344561E-03 5.19880543E-04-2.47667144E-05-1.67758608E-03 8.55406640E-04
29  2 1.02841792E-03 4.17469546E-03-2.09621498E-03-7.51130879E-04 7.17613202E-04
29  3-5.10816819E-02-5.39011711E-02-5.61732286E-03-4.09686730E-03 1.04462723E-02
29  4-4.96704911E-03-1.74293273E-03-2.56074980E-03-1.98124802E-03 1.46211706E-03
29  5 9.13154145E-03 2.11240458E-03 1.99072900E-02-1.64875607E-02 4.46313604E-02
29  6-4.52716308E-01-4.21723700E-01-4.66140404E-02 4.81853945E-01 4.79193968E-01
29  7-2.73548339E-04 2.95037786E-04-7.39260830E-05-7.58563901E-04-1.41450753E-04
29  8-3.81658216E-04 2.42683025E-04 2.53282755E-04 6.23508552E-05-2.85351671E-04
29  9-4.64361404E-06-1.34046153E-04-8.93166111E-05 2.46333016E-04-1.34633324E-04
29 10 1.26770048E-03 5.79064616E-03-1.35584407E-04 2.63205751E-03-8.56267220E-04
29 11-1.76663216E-03 7.47759233E-04 7.48504634E-04-8.93512017E-06 1.05419735E-03