!File created by the GAMESS Input Deck Generator Plugin for Avogadro
 $BASIS GBASIS=STO NGAUSS=3 $END
 $CONTRL SCFTYP=RHF RUNTYP=SADPOINT $END
 $STATPT  HESS=calc ihrep=5 $END
 $FORCE NVIB=2 $END
 $STATPT OPTTOL=0.0005 NSTEP=50 hssend=.t. $END
 $ZMAT DLC=.T. AUTO=.T. NONVDW(1)=1,6,3,4,4,5,5,6,1,2,2,3 $END
!$ZMAT IFZMAT(1)=1,1,6,1,3,4 fvalue(1)=2.00,2.00 $END

 $DATA 
Title
C1
C     6.0     3.51238608    -0.84521562    -2.82799697
C     6.0     2.72567296    -1.12904155    -1.69776297
C     6.0     2.83395386    -0.29861340    -0.56987470
C     6.0     4.67647552    -0.36183494     0.00835283
C     6.0     5.34772253    -1.20183754    -0.89657611
C     6.0     5.35181618    -0.78260130    -2.24056029
C     6.0     5.65190744     0.68683612    -2.43724728
C     6.0     5.51064301     1.56224442    -1.46393967
C     6.0     5.01944923     1.13535070    -0.09899232
O     8.0     4.89970112     1.90796494     0.84135729
H     1.0     3.50788736    -1.57859683    -3.62818170
H     1.0     3.48171473     0.16982803    -3.20647597
H     1.0     2.47640371    -2.16885972    -1.52000630
H     1.0     2.78020215     0.76989383    -0.74459291
H     1.0     2.29016995    -0.59294194     0.32172865
H     1.0     4.59973764    -0.69873536     1.03852987
H     1.0     5.42668486    -2.25920606    -0.67545170
H     1.0     5.84061146    -1.42924583    -2.96358728
H     1.0     5.99208593     0.98978430    -3.42157650
H     1.0     5.75267506     2.60935402    -1.58956289
 $END
