!File created by the GAMESS Input Deck Generator Plugin for Avogadro
 $BASIS GBASIS=STO NGAUSS=3 $END
 $CONTRL SCFTYP=RHF RUNTYP=SADPOINT $END
 $STATPT  HESS=calc ihrep=5 $END
 $FORCE NVIB=2 $END
 $STATPT OPTTOL=0.0005 NSTEP=50 hssend=.t. $END
 $ZMAT DLC=.T. AUTO=.T. NONVDW(1)=1,6,3,4,4,5,5,6,1,2,2,3 $END
!$ZMAT IFZMAT(1)=1,1,6,1,3,4 fvalue(1)=2.00,2.00 $END

 $DATA 
Title
C1
C     6.0     3.48004365    -0.83843845    -2.83616281
C     6.0     2.72182822    -1.13427854    -1.69757164
C     6.0     2.80293298    -0.30054250    -0.57620537
C     6.0     4.71134090    -0.36015889     0.01913138
C     6.0     5.35231352    -1.20522642    -0.89496231
C     6.0     5.38572931    -0.78296304    -2.23177552
C     6.0     5.66887569     0.68294489    -2.43531394
C     6.0     5.51624823     1.56181467    -1.46541297
C     6.0     5.02617645     1.13744795    -0.10010863
O     8.0     4.88529062     1.91794324     0.83196336
H     1.0     3.48754382    -1.56656122    -3.64060879
H     1.0     3.46856666     0.18287182    -3.19665074
H     1.0     2.48006868    -2.17600751    -1.52117991
H     1.0     2.76260352     0.76900828    -0.74510527
H     1.0     2.27466917    -0.60144699     0.32214954
H     1.0     4.62216568    -0.69802648     1.04756415
H     1.0     5.42058849    -2.26379943    -0.67585480
H     1.0     5.85516119    -1.43687046    -2.96028805
H     1.0     6.00807905     0.98607594    -3.41986513
H     1.0     5.74767447     2.61073947    -1.59615958
 $END
