!   File created by the GAMESS Input Deck Generator Plugin for Avogadro
 $BASIS GBASIS=STO NGAUSS=3 $END
 $CONTRL SCFTYP=RHF RUNTYP=OPTIMIZE NZVAR=1 MULT=1 ICHARG=0 $END
 $STATPT  HESS=calc ihrep=5 $END
 $FORCE NVIB=2 $END
 $STATPT OPTTOL=0.0005 NSTEP=50 hssend=.t. $END
 $ZMAT DLC=.T. AUTO=.T. NONVDW(1)=1,6,3,4 $END
 $ZMAT IFZMAT(1)=1,1,6,1,3,4 fvalue(1)=2.00,2.00 $END

 $DATA 
Title
C1
C     6.0     3.44005    -0.81494    -2.79958
C     6.0     2.69379    -1.19558    -1.73129
C     6.0     2.74875    -0.39513    -0.45893
C     6.0     4.68359    -0.31938     0.03505
C     6.0     5.34150    -1.21313    -0.97970
C     6.0     5.36712    -0.74816    -2.25885
C     6.0     5.77455     0.67081    -2.40088
C     6.0     5.63718     1.57425    -1.41932
C     6.0     5.05059     1.14470    -0.12363
O     8.0     4.84020     1.97955     0.75389
H     1.0     3.45281    -1.46873    -3.67539
H     1.0     3.49554     0.26318    -2.98649
H     1.0     2.32896    -2.21746    -1.66436
H     1.0     2.41658     0.64221    -0.54690
H     1.0     2.29245    -0.91384     0.38827
H     1.0     4.74702    -0.66555     1.06889
H     1.0     5.39209    -2.27877    -0.77913
H     1.0     5.72186    -1.41979    -3.04896
H     1.0     6.21261     0.95681    -3.35363
H     1.0     5.92993     2.61077    -1.51667
 $END
