!   File created by the GAMESS Input Deck Generator Plugin for Avogadro
 $BASIS GBASIS=STO NGAUSS=3 $END
 $CONTRL SCFTYP=RHF RUNTYP=SADPOINT NZVAR=1 MULT=1 ICHARG=0 $END
 $STATPT  HESS=calc ihrep=5 $END
 $FORCE NVIB=2 $END
 $STATPT OPTTOL=0.0005 NSTEP=50 hssend=.t. $END
 $ZMAT DLC=.T. AUTO=.T. NONVDW(1)=1,4,3,4,2,3,3,8 $END
 $ZMAT IFZMAT(1)=1,1,4,1,3,8,1,3,4,1,2,3,1,3,8 fvalue(1)=2.00,2.00 $END

 $DATA 
Title
C1
B     5.0     3.55715561    -1.16890085     0.54418188
C     6.0     1.60561335     0.21174982    -1.00232100
C     6.0     3.11153984     0.28293237    -0.76839834
C     6.0     4.04577589    -0.55697477    -1.29614317
C     6.0     5.44108868     0.06685965    -1.29675841
C     6.0     5.29218721     1.30407858    -0.37189531
C     6.0     3.77034235     1.59647119    -0.31725058
H     1.0     2.90941310    -0.39475939     1.10239792
H     1.0     3.00198889    -2.14105606     0.26314598
H     1.0     4.64058113    -1.23504043     0.93552440
H     1.0     1.29680598    -0.80478877    -1.22268975
H     1.0     1.35469961     0.84767431    -1.84926462
H     1.0     1.06252289     0.56680024    -0.13192864
H     1.0     3.80869293    -1.41557193    -1.91015041
H     1.0     5.69323015     0.36464500    -2.31497169
H     1.0     6.20914888    -0.62057495    -0.95062023
H     1.0     5.85170984     2.15785933    -0.74396628
H     1.0     5.65904665     1.06939864     0.62304503
H     1.0     3.49081826     2.37249589    -1.02969730
H     1.0     3.43572617     1.91048110     0.66812092

 $END
