!   File created by the GAMESS Input Deck Generator Plugin for Avogadro
 $BASIS GBASIS=STO NGAUSS=3 $END
 $CONTRL SCFTYP=RHF RUNTYP=OPTIMIZE NZVAR=1 MULT=1 ICHARG=0 $END
 $STATPT  HESS=calc ihrep=5 $END
 $FORCE NVIB=2 $END
 $STATPT OPTTOL=0.0005 NSTEP=50 hssend=.t. $END
 $ZMAT DLC=.T. AUTO=.T. NONVDW(1)=1,4,3,8 $END
 $ZMAT IFZMAT(1)=1,1,4,1,3,8 fvalue(1)=2.00,2.00 $END

 $DATA 
Title
C1
B     5.0     4.06206989    -1.32307005     0.20014000
C     6.0     1.68611002     0.34362999    -1.16938996
C     6.0     3.16997004     0.52525002    -1.07147002
C     6.0     4.06595993    -0.27059999    -1.65309000
C     6.0     5.44931984     0.10076000    -1.24105000
C     6.0     5.24931002     1.53110003    -0.76049000
C     6.0     3.83073997     1.55273998    -0.21077000
H     1.0     3.72673011    -1.05862999     1.00311005
H     1.0     4.03345013    -2.12437010     0.26326001
H     1.0     4.80149984    -1.57778001     0.35883000
H     1.0     1.42925000    -0.51078999    -1.83131003
H     1.0     1.22827005     1.26640999    -1.58204997
H     1.0     1.27000999     0.15073000    -0.15869001
H     1.0     3.81028008    -1.14043999    -2.24447989
H     1.0     6.19220018     0.07770000    -2.06686997
H     1.0     5.75288010    -0.58418000    -0.42008001
H     1.0     5.22086000     2.15478992    -1.68578005
H     1.0     6.04117012     1.94974005    -0.10453000
H     1.0     3.40497994     2.57493997    -0.30482000
H     1.0     3.77637005     1.19884002     0.84140003
 $END
