!   File created by the GAMESS Input Deck Generator Plugin for Avogadro
 $BASIS GBASIS=STO NGAUSS=3 $END
 $CONTRL SCFTYP=RHF RUNTYP=ENERGY $END

 $DATA 
Title
C1
B     5.0     3.41827    -1.36181     1.19922
C     6.0     1.58969     0.04594     0.01311
C     6.0     3.08589     0.09871    -0.04975
C     6.0     3.87867    -0.97199    -0.04738
C     6.0     5.31214    -0.56883     0.02125
C     6.0     5.24543     0.87278    -0.46286
C     6.0     3.87952     1.36420    -0.00639
H     1.0     3.06355    -1.63718     2.05752
H     1.0     2.98871     0.06265     0.60024
H     1.0     4.34857    -1.68075     1.41171
H     1.0     1.22478    -1.00337     0.01108
H     1.0     1.16491     0.57374    -0.86588
H     1.0     1.24028     0.54494     0.94087
H     1.0     3.52054    -1.99155     0.01619
H     1.0     5.98377    -1.15990    -0.63763
H     1.0     5.63483    -0.64593     1.08202
H     1.0     5.18444     0.81071    -1.57569
H     1.0     6.11293     1.52006    -0.21558
H     1.0     3.51593     2.15935    -0.69244
H     1.0     3.88587     1.72353     1.04537
 $END
